2287.26 0
0 175 65 176 35 13 30 157 86 33 17 130 110 0
0 126 3 195 191 67 62 185 115 142 114 186 0
0 139 173 140 166 88 167 34 177 164 119 10 31 0
0 32 147 50 151 118 25 56 18 92 148 163 168 0
0 78 149 26 135 72 39 109 75 162 134 133 14 69 179 59 0
0 189 129 132 27 172 82 141 68 137 143 90 190 28 64 0
0 188 159 12 71 60 117 16 104 198 199 194 196 112 0
0 100 102 99 79 124 103 98 95 97 106 96 89 91 93 94 101 0
0 76 77 165 85 84 178 58 128 8 146 73 145 182 152 0
0 53 183 197 136 184 23 74 144 24 105 87 5 15 0
0 57 131 80 187 63 49 107 181 9 161 55 6 0
0 116 43 42 48 47 154 45 46 51 40 44 0
0 7 150 38 52 180 123 171 21 156 22 41 1 0
0 125 29 36 122 121 113 160 192 158 193 0
0 155 174 81 70 11 108 37 138 20 19 170 169 0
0 61 66 120 127 4 111 83 153 54 2 0